1
120
77
20 3
21 3
22 2
23 1
24 2
25 3
26 2
27 5
28 5
29 1
30 2
31 2
32 2
33 1
34 3
36 3
37 2
38 2
39 2
40 4
42 2
43 3
44 4
45 2
46 1
47 2
48 2
49 3
50 1
51 6
52 1
53 2
54 2
55 4
56 3
57 3
58 2
59 1
60 2
61 3
62 2
63 4
64 2
65 3
66 6
67 3
68 3
69 5
70 1
71 2
72 2
73 3
74 1
75 2
76 2
77 5
78 2
79 1
80 4
81 2
84 4
85 3
86 2
87 2
88 2
89 2
90 1
91 2
92 5
93 2
94 6
95 3
96 2
97 4
98 1
99 3
100 2
